c Sudoku solution
p cnf 729 0
193 0
216 0
349 0
363 0
378 0
469 0
473 0
542 0
554 0
565 0
588 0
596 0
615 0
631 0
571 0
666 0
689 0
692 0
717 0
828 0
857 0
864 0
899 0
921 0
936 0
426 0
948 0
962 0
761 0
881 0
798 0
658 0
643 0
447 0
451 0
677 0
624 0
984 0
783 0
975 0
997 0
953 0
759 0
734 0
919 0
513 0
812 0
725 0
833 0
772 0
876 0
746 0
845 0
418 0
432 0
223 0
485 0
494 0
314 0
111 0
144 0
241 0
179 0
274 0
239 0
138 0
335 0
155 0
252 0
356 0
186 0
122 0
327 0
167 0
268 0
391 0
295 0
287 0
382 0
529 0
537 0
